variable filename1 index ice387 #定义文件名

log ${filename1}.log
#模拟过程具体的in文件如下：
units real
boundary p p p #f：非周期性和固定
atom_style full

pair_style lj/cut/coul/long 10 8.5
pair_modify mix arithmetic #CLAYFF力场中的参数组合形式
pair_modify shift yes
bond_style harmonic
angle_style harmonic
kspace_style ewald 1.0e-4

read_data  ice111.data #MS导出的data文件

set type 1   charge  0.4238   #SPC/E水模型
set type 2   charge -0.8476

neighbor 1.0 bin
neigh_modify delay 0 every 1 check yes

replicate 3 8 7 #复制扩胞为20a*10b*10c = 62*31*31，6000 atoms，2000个水分子

write_data ${filename1}.data
#write_restart ${filename1}.restart