variable filename1 index supercell-mmt872 #定义文件名

log ${filename1}.log
#模拟过程具体的in文件如下：
units real
boundary p p p #f：非周期性和固定
atom_style full

pair_style lj/cut/coul/long 10 8.5
pair_modify mix arithmetic #CLAYFF力场中的参数组合形式
pair_modify shift yes
bond_style harmonic
angle_style harmonic
kspace_style ewald 1.0e-4

read_data  mmt411-new.data #MS导出的data文件

set type 1 charge 1.5750
set type 2 charge 2.09616129   #由2.1改为该数值，为了实现电荷平衡
set type 3 charge -1.05
set type 4 charge -0.95
set type 5 charge 1.0
set type 6 charge 0.425
set type 7 charge 1.36
set type 8 charge -1.1808
set type 9 charge -1.0808
set type 10 charge -1.1688
set type 11   charge 1.5750

neighbor 1.0 bin
neigh_modify delay 0 every 1 check yes

replicate 2 7 2 #复制扩胞为n*n*n，因为mmt411，x方向已经扩胞4倍了

write_data ${filename1}.data
#write_restart ${filename1}.restart